% demand
num_movements = 20;
loading_factor = [1550, 1200, 1100, 800, 1300, 1200, 1900, 1800, 1900, 1350, 1100, 850, 1050, 2000, 1700, 1150, 950, 1000, 1050, 1250];
pickup_time = [0, 0, 1, 1, 1, 1, 1, 2, 2, 2, 2, 2, 4, 4, 4, 4, 7, 9, 9, 9];
delivery_time = [1, 1, 2, 2, 2, 2, 2, 4, 4, 4, 9, 4, 7, 9, 8, 9, 9, 10, 10, 10];

% transporter definition
total_capacity = 7000;
num_decks = 3;
capacity = [3000, 1000, 3000];

% ways out of decks
num_ways_out = 1;
paths_out = array3d(decks, ways_out, decks, [
% ways out of deck d1
2, 3, 0, 

% ways out of deck d2
3, 0, 0, 

% ways out of deck d3
0, 0, 0,	

]);

